10J3M/DAT/10J3MUNR-8.dat
10 3
31.689 23.7997
36.7657 16.082
3.4961 42.4155
38.0461 15.6716
7.8943 32.8019
17.1202 6.0117
3.8843 9.2366
6.6916 49.2194
10.258 10.1304
25.6141 35.0341
240.4029