10J3M/SOL/10J3MUNR-8.sol
solution status: optimal solution found
objective value:                     66.7109333333333
x#1#1                                               1 	(obj:0)
x#2#2                                               1 	(obj:0)
x#3#1                                               1 	(obj:0)
x#4#2                               0.201425647708231 	(obj:0)
x#4#3                               0.798574352291769 	(obj:0)
x#5#2                                               1 	(obj:0)
x#6#1                                               1 	(obj:0)
x#7#1                                               1 	(obj:0)
x#8#3                                               1 	(obj:0)
x#9#1                                               1 	(obj:0)
x#10#1                              0.922456198312435 	(obj:0)
x#10#3                             0.0775438016875651 	(obj:0)
z                                    66.7109333333333 	(obj:1)
